<number of tasks>
20

<cycle time>
1000

<order strength>
0,195


<task times>
1 185
2 163
3 498
4 330
5 40
6 262
7 245
8 524
9 220
10 420
11 27
12 229
13 86
14 436
15 320
16 103
17 137
18 291
19 438
20 102

<precedence relations>
1,8
2,6
3,9
4,7
6,12
7,10
7,13
8,11
10,14
11,16
13,15
15,17
16,18
16,19
16,20

<end>
